% seed = 2274599

mint = 49;
% maxt = 100;

nActs = 22;
dur = [0,1,6,9,1,9,3,5,4,3,1,10,7,6,1,6,3,1,9,6,9,0];

nSkills = 4;
sreq = [| 0,0,0,0,
	| 2,1,1,2,
	| 2,3,3,2,
	| 2,2,2,2,
	| 3,1,2,2,
	| 3,3,1,2,
	| 1,1,2,2,
	| 2,1,3,3,
	| 3,1,2,3,
	| 1,1,3,2,
	| 3,1,3,3,
	| 1,1,2,1,
	| 1,1,3,2,
	| 3,2,2,3,
	| 1,2,3,1,
	| 1,2,2,2,
	| 1,3,1,1,
	| 3,1,1,3,
	| 1,2,3,2,
	| 3,3,2,3,
	| 2,2,2,3,
	| 0,0,0,0, |];

nResources = 25;
mastery = [| false,false,true,false,
	| true,true,false,true,
	| false,true,true,true,
	| true,true,false,false,
	| false,false,false,true,
	| false,true,true,false,
	| false,true,false,false,
	| true,false,false,false,
	| true,false,true,false,
	| false,false,true,false,
	| false,false,true,true,
	| true,false,true,true,
	| false,false,true,false,
	| true,false,true,true,
	| true,true,false,true,
	| true,true,false,true,
	| false,false,true,true,
	| false,true,true,true,
	| false,true,false,true,
	| true,true,false,true,
	| false,false,false,true,
	| true,false,false,false,
	| true,false,false,true,
	| false,true,true,true,
	| false,false,true,true, |];

nPrecs = 43;
pred = [1,1,1,2,2,2,3,3,3,4,4,4,5,5,6,6,6,7,7,8,8,9,9,10,10,11,11,12,12,12,13,14,14,15,15,16,16,17,17,18,19,20,21];
succ = [2,3,4,9,10,19,10,7,8,10,5,7,9,6,11,15,8,9,11,19,20,12,15,17,15,19,12,13,14,16,17,17,18,18,21,18,21,20,21,20,22,22,22];

nUnrels = 60;
unpred = [2,2,2,2,2,2,2,3,3,3,5,5,6,6,6,7,7,8,8,8,8,8,8,8,8,8,8,8,9,9,9,10,10,10,10,10,10,11,12,12,13,13,13,13,13,14,14,14,15,15,15,16,16,17,17,18,18,19,19,20];
unsucc = [3,4,5,6,7,8,11,4,5,6,7,10,7,9,10,8,10,9,10,11,12,13,14,15,16,17,18,21,10,11,19,11,12,13,14,16,19,15,15,19,14,15,16,18,19,15,16,19,16,17,19,17,19,18,19,19,21,20,21,21];

USEFUL_RES = [{},
	{1,2,3,4,5,6,7,8,9,10,11,12,13,14,15,16,17,18,19,20,21,22,23,24,25},
	{1,2,3,4,5,6,7,8,9,10,11,12,13,14,15,16,17,18,19,20,21,22,23,24,25},
	{1,2,3,4,5,6,7,8,9,10,11,12,13,14,15,16,17,18,19,20,21,22,23,24,25},
	{1,2,3,4,5,6,7,8,9,10,11,12,13,14,15,16,17,18,19,20,21,22,23,24,25},
	{1,2,3,4,5,6,7,8,9,10,11,12,13,14,15,16,17,18,19,20,21,22,23,24,25},
	{1,2,3,4,5,6,7,8,9,10,11,12,13,14,15,16,17,18,19,20,21,22,23,24,25},
	{1,2,3,4,5,6,7,8,9,10,11,12,13,14,15,16,17,18,19,20,21,22,23,24,25},
	{1,2,3,4,5,6,7,8,9,10,11,12,13,14,15,16,17,18,19,20,21,22,23,24,25},
	{1,2,3,4,5,6,7,8,9,10,11,12,13,14,15,16,17,18,19,20,21,22,23,24,25},
	{1,2,3,4,5,6,7,8,9,10,11,12,13,14,15,16,17,18,19,20,21,22,23,24,25},
	{1,2,3,4,5,6,7,8,9,10,11,12,13,14,15,16,17,18,19,20,21,22,23,24,25},
	{1,2,3,4,5,6,7,8,9,10,11,12,13,14,15,16,17,18,19,20,21,22,23,24,25},
	{1,2,3,4,5,6,7,8,9,10,11,12,13,14,15,16,17,18,19,20,21,22,23,24,25},
	{1,2,3,4,5,6,7,8,9,10,11,12,13,14,15,16,17,18,19,20,21,22,23,24,25},
	{1,2,3,4,5,6,7,8,9,10,11,12,13,14,15,16,17,18,19,20,21,22,23,24,25},
	{1,2,3,4,5,6,7,8,9,10,11,12,13,14,15,16,17,18,19,20,21,22,23,24,25},
	{1,2,3,4,5,6,7,8,9,10,11,12,13,14,15,16,17,18,19,20,21,22,23,24,25},
	{1,2,3,4,5,6,7,8,9,10,11,12,13,14,15,16,17,18,19,20,21,22,23,24,25},
	{1,2,3,4,5,6,7,8,9,10,11,12,13,14,15,16,17,18,19,20,21,22,23,24,25},
	{1,2,3,4,5,6,7,8,9,10,11,12,13,14,15,16,17,18,19,20,21,22,23,24,25},
	{}];

POTENTIAL_ACT = [{2,3,4,5,6,7,8,9,10,11,12,13,14,15,16,17,18,19,20,21},
	{2,3,4,5,6,7,8,9,10,11,12,13,14,15,16,17,18,19,20,21},
	{2,3,4,5,6,7,8,9,10,11,12,13,14,15,16,17,18,19,20,21},
	{2,3,4,5,6,7,8,9,10,11,12,13,14,15,16,17,18,19,20,21},
	{2,3,4,5,6,7,8,9,10,11,12,13,14,15,16,17,18,19,20,21},
	{2,3,4,5,6,7,8,9,10,11,12,13,14,15,16,17,18,19,20,21},
	{2,3,4,5,6,7,8,9,10,11,12,13,14,15,16,17,18,19,20,21},
	{2,3,4,5,6,7,8,9,10,11,12,13,14,15,16,17,18,19,20,21},
	{2,3,4,5,6,7,8,9,10,11,12,13,14,15,16,17,18,19,20,21},
	{2,3,4,5,6,7,8,9,10,11,12,13,14,15,16,17,18,19,20,21},
	{2,3,4,5,6,7,8,9,10,11,12,13,14,15,16,17,18,19,20,21},
	{2,3,4,5,6,7,8,9,10,11,12,13,14,15,16,17,18,19,20,21},
	{2,3,4,5,6,7,8,9,10,11,12,13,14,15,16,17,18,19,20,21},
	{2,3,4,5,6,7,8,9,10,11,12,13,14,15,16,17,18,19,20,21},
	{2,3,4,5,6,7,8,9,10,11,12,13,14,15,16,17,18,19,20,21},
	{2,3,4,5,6,7,8,9,10,11,12,13,14,15,16,17,18,19,20,21},
	{2,3,4,5,6,7,8,9,10,11,12,13,14,15,16,17,18,19,20,21},
	{2,3,4,5,6,7,8,9,10,11,12,13,14,15,16,17,18,19,20,21},
	{2,3,4,5,6,7,8,9,10,11,12,13,14,15,16,17,18,19,20,21},
	{2,3,4,5,6,7,8,9,10,11,12,13,14,15,16,17,18,19,20,21},
	{2,3,4,5,6,7,8,9,10,11,12,13,14,15,16,17,18,19,20,21},
	{2,3,4,5,6,7,8,9,10,11,12,13,14,15,16,17,18,19,20,21},
	{2,3,4,5,6,7,8,9,10,11,12,13,14,15,16,17,18,19,20,21},
	{2,3,4,5,6,7,8,9,10,11,12,13,14,15,16,17,18,19,20,21},
	{2,3,4,5,6,7,8,9,10,11,12,13,14,15,16,17,18,19,20,21}];
